  0 144 114 105  31 109 135 132  85  79 158  20  73 162 127
144   0 144 181 147  76 195  73  64 114 220 135  71  18  39
114 144   0  49  86 169  51  78 130  42  76  94 114 154 105
105 181  49   0  73 189  31 124 152  67  52  88 135 195 146
 31 147  86  73   0 128 104 119  97  57 126  17  82 164 122
109  76 169 189 128   0 212 126  38 128 238 112  54  92  95
135 195  51  31 104 212   0 129 174  85  26 118 157 206 157
132  73  78 124 119 126 129   0  92  65 153 115  84  80  35
 85  64 130 152  97  38 174  92   0  90 200  82  17  82  66
 79 114  42  67  57 128  85  65  90   0 111  59  73 128  80
158 220  76  52 126 238  26 153 200 111   0 141 183 231 182
 20 135  94  88  17 112 118 115  82  59 141   0  67 153 114
 73  71 114 135  82  54 157  84  17  73 183  67   0  90  64
162  18 154 195 164  92 206  80  82 128 231 153  90   0  49
127  39 105 146 122  95 157  35  66  80 182 114  64  49   0
